(set-info :smt-lib-version 2.6)
(set-logic LIA)
(set-info
  :source |
 Generated by PSyCO 0.1
 More info in N. P. Lopes and J. Monteiro. Weakest Precondition Synthesis for
 Compiler Optimizations, VMCAI'14.
|)
(set-info :category "industrial")
(set-info :status unsat)
(declare-fun W_S2_V5 () Bool)
(declare-fun W_S2_V2 () Bool)
(declare-fun W_S2_V3 () Bool)
(declare-fun W_S2_V1 () Bool)
(declare-fun W_S1_V4 () Bool)
(declare-fun W_S1_V5 () Bool)
(declare-fun W_S1_V2 () Bool)
(declare-fun W_S1_V1 () Bool)
(declare-fun R_S1_V1 () Bool)
(declare-fun R_E1_V4 () Bool)
(declare-fun R_E1_V5 () Bool)
(declare-fun R_E1_V2 () Bool)
(declare-fun R_E1_V3 () Bool)
(declare-fun DISJ_W_S2_R_E1 () Bool)
(declare-fun R_S2_V4 () Bool)
(declare-fun R_S2_V5 () Bool)
(declare-fun R_S2_V2 () Bool)
(declare-fun R_S2_V3 () Bool)
(declare-fun R_S2_V1 () Bool)
(declare-fun DISJ_W_S2_R_S2 () Bool)
(declare-fun R_S1_V4 () Bool)
(declare-fun R_S1_V5 () Bool)
(declare-fun R_S1_V2 () Bool)
(declare-fun R_S1_V3 () Bool)
(declare-fun DISJ_W_S2_R_S1 () Bool)
(declare-fun DISJ_W_S1_W_S2 () Bool)
(declare-fun DISJ_W_S1_R_E1 () Bool)
(declare-fun DISJ_W_S1_R_S2 () Bool)
(declare-fun DISJ_W_S1_R_S1 () Bool)
(declare-fun W_S2_V4 () Bool)
(declare-fun W_S1_V3 () Bool)
(declare-fun R_E1_V1 () Bool)
(assert
 (let
 (($x2806
   (forall
    ((V3_0 Int) (V2_0 Int) 
     (V5_0 Int) (V4_0 Int) 
     (MW_S1_V1 Bool) (MW_S1_V3 Bool) 
     (MW_S1_V2 Bool) (MW_S1_V5 Bool) 
     (MW_S1_V4 Bool) (MW_S2_V1 Bool) 
     (MW_S2_V3 Bool) (MW_S2_V2 Bool) 
     (MW_S2_V5 Bool) (MW_S2_V4 Bool) 
     (S1_V1_!390 Int) (S1_V1_!401 Int) 
     (S2_V5_!398 Int) (S1_V3_!391 Int) 
     (S1_V3_!402 Int) (S1_V2_!392 Int) 
     (S1_V2_!403 Int) (E1_!389 Int) 
     (E1_!400 Int) (E1_!406 Int) 
     (S2_V4_!399 Int) (S1_V5_!393 Int) 
     (S1_V5_!404 Int) (S2_V1_!395 Int) 
     (S1_V4_!394 Int) (S1_V4_!405 Int) 
     (S2_V2_!397 Int) (S2_V3_!396 Int))
    (let ((?x2877 (ite MW_S1_V4 S1_V4_!405 V4_0)))
    (let ((?x2896 (ite MW_S1_V4 S1_V4_!394 V4_0)))
    (let ((?x2550 (ite MW_S2_V4 S2_V4_!399 ?x2896)))
    (let (($x2580 (= ?x2550 ?x2877)))
    (let ((?x2602 (ite MW_S1_V5 S1_V5_!404 V5_0)))
    (let ((?x2893 (ite MW_S1_V5 S1_V5_!393 V5_0)))
    (let ((?x2599 (ite MW_S2_V5 S2_V5_!398 ?x2893)))
    (let (($x2760 (= ?x2599 ?x2602)))
    (let ((?x2475 (ite MW_S1_V2 S1_V2_!403 V2_0)))
    (let ((?x2758 (ite MW_S1_V2 S1_V2_!392 V2_0)))
    (let ((?x2606 (ite MW_S2_V2 S2_V2_!397 ?x2758)))
    (let (($x2619 (= ?x2606 ?x2475)))
    (let ((?x2882 (ite MW_S1_V3 S1_V3_!402 V3_0)))
    (let ((?x2750 (ite MW_S1_V3 S1_V3_!391 V3_0)))
    (let ((?x2894 (ite MW_S2_V3 S2_V3_!396 ?x2750)))
    (let (($x2500 (= ?x2894 ?x2882)))
    (let ((?x2744 (+ (- 1) E1_!406)))
    (let ((?x2913 (ite MW_S1_V1 S1_V1_!390 E1_!389)))
    (let ((?x2866 (ite MW_S2_V1 S2_V1_!395 ?x2913)))
    (let (($x2914 (= ?x2866 ?x2744)))
    (let (($x2909 (and $x2914 $x2500 $x2619 $x2760 $x2580)))
    (let (($x2532 (>= E1_!406 ?x2475)))
    (let ((?x2873 (+ (- 1) ?x2475)))
    (let ((?x2563 (ite MW_S1_V1 S1_V1_!401 E1_!400)))
    (let (($x2498 (>= ?x2563 ?x2873)))
    (let (($x2890 (<= V2_0 E1_!400)))
    (let (($x2462 (not $x2890)))
    (let ((?x2439 (+ (- 1) ?x2606)))
    (let (($x2910 (>= ?x2866 ?x2439)))
    (let (($x2201 (<= V2_0 E1_!389)))
    (let (($x2540 (not $x2201)))
    (let (($x2479 (and $x2540 $x2910 $x2462 $x2498 $x2532)))
    (let (($x2857 (not $x2479)))
    (let (($x2862 (not MW_S2_V5)))
    (let (($x2916 (or $x2862 W_S2_V5)))
    (let (($x2477 (not MW_S2_V2)))
    (let (($x2608 (or $x2477 W_S2_V2)))
    (let (($x2892 (not MW_S2_V3)))
    (let (($x2921 (or $x2892 W_S2_V3)))
    (let (($x2468 (not MW_S2_V1)))
    (let (($x2883 (or $x2468 W_S2_V1)))
    (let (($x2598 (not MW_S1_V4)))
    (let (($x2431 (or $x2598 W_S1_V4)))
    (let (($x2478 (not MW_S1_V5)))
    (let (($x2855 (or $x2478 W_S1_V5)))
    (let (($x2453 (not MW_S1_V2)))
    (let (($x2199 (or $x2453 W_S1_V2)))
    (let (($x2574 (not MW_S1_V1)))
    (let (($x2442 (or $x2574 W_S1_V1)))
    (let (($x2907 (= S1_V4_!394 S1_V4_!405)))
    (let (($x2709 (= E1_!389 E1_!400)))
    (let (($x202 (not R_S1_V1)))
    (let (($x2464 (or $x202 $x2709)))
    (let (($x2486 (not $x2464)))
    (let (($x2912 (or $x2486 $x2907)))
    (let (($x2621 (= S1_V5_!393 S1_V5_!404)))
    (let (($x2869 (or $x2486 $x2621)))
    (let (($x2444 (= E1_!406 E1_!389)))
    (let (($x2704 (= ?x2877 V4_0)))
    (let (($x158 (not R_E1_V4)))
    (let (($x2586 (or $x158 $x2704)))
    (let (($x2905 (= ?x2602 V5_0)))
    (let (($x156 (not R_E1_V5)))
    (let (($x2875 (or $x156 $x2905)))
    (let (($x2706 (= ?x2475 V2_0)))
    (let (($x154 (not R_E1_V2)))
    (let (($x2724 (or $x154 $x2706)))
    (let (($x2884 (= ?x2882 V3_0)))
    (let (($x152 (not R_E1_V3)))
    (let (($x2565 (or $x152 $x2884)))
    (let (($x2822 (and $x2565 $x2724 $x2875 $x2586)))
    (let (($x2823 (not $x2822)))
    (let (($x2801 (or $x2823 $x2444)))
    (let (($x2854 (= E1_!400 E1_!406)))
    (let (($x2843 (= V4_0 ?x2877)))
    (let (($x2872 (or $x158 $x2843)))
    (let (($x2886 (= V5_0 ?x2602)))
    (let (($x2761 (or $x156 $x2886)))
    (let (($x2895 (= V2_0 ?x2475)))
    (let (($x2830 (or $x154 $x2895)))
    (let (($x2765 (= V3_0 ?x2882)))
    (let (($x2842 (or $x152 $x2765)))
    (let (($x2819 (and $x2842 $x2830 $x2761 $x2872)))
    (let (($x2820 (not $x2819)))
    (let (($x2821 (or $x2820 $x2854)))
    (let (($x2815 (= E1_!400 E1_!389)))
    (let (($x2816 (= S1_V2_!392 S1_V2_!403)))
    (let (($x2817 (or $x2486 $x2816)))
    (let (($x2818 (= S1_V3_!391 S1_V3_!402)))
    (let (($x2925 (or $x2486 $x2818)))
    (let (($x2612 (= S1_V1_!390 S1_V1_!401)))
    (let (($x2469 (or $x2486 $x2612)))
    (let
    (($x2802
      (and $x2469 $x2925 $x2817 $x2815 $x2821 $x2801 $x2869 $x2912 $x2442
      $x2199 $x2855 $x2431 $x2883 $x2921 $x2608 $x2916)))
    (let (($x2803 (not $x2802))) (or $x2803 $x2857 $x2909))))))))))))))))))))))))))))))))))))))))))))))))))))))))))))))))))))))))))))))))))))))))))))))))))
 (let (($x90 (and W_S2_V5 R_E1_V5)))
 (let (($x89 (and W_S2_V2 R_E1_V2)))
 (let (($x88 (and W_S2_V3 R_E1_V3)))
 (let (($x2834 (or $x88 $x89 $x90 R_E1_V4)))
 (let (($x2835 (not $x2834)))
 (let (($x2837 (= DISJ_W_S2_R_E1 $x2835)))
 (let (($x81 (and W_S2_V5 R_S2_V5)))
 (let (($x80 (and W_S2_V2 R_S2_V2)))
 (let (($x79 (and W_S2_V3 R_S2_V3)))
 (let (($x78 (and W_S2_V1 R_S2_V1)))
 (let (($x113 (or $x78 $x79 $x80 $x81 R_S2_V4)))
 (let (($x114 (not $x113)))
 (let (($x115 (= DISJ_W_S2_R_S2 $x114)))
 (let (($x72 (and W_S2_V5 R_S1_V5)))
 (let (($x71 (and W_S2_V2 R_S1_V2)))
 (let (($x70 (and W_S2_V3 R_S1_V3)))
 (let (($x69 (and W_S2_V1 R_S1_V1)))
 (let (($x110 (or $x69 $x70 $x71 $x72 R_S1_V4)))
 (let (($x111 (not $x110)))
 (let (($x112 (= DISJ_W_S2_R_S1 $x111)))
 (let (($x63 (and W_S1_V5 W_S2_V5)))
 (let (($x61 (and W_S1_V2 W_S2_V2)))
 (let (($x57 (and W_S1_V1 W_S2_V1)))
 (let (($x107 (or $x57 W_S2_V3 $x61 $x63 W_S1_V4)))
 (let (($x108 (not $x107)))
 (let (($x109 (= DISJ_W_S1_W_S2 $x108)))
 (let (($x51 (and W_S1_V4 R_E1_V4)))
 (let (($x49 (and W_S1_V5 R_E1_V5)))
 (let (($x47 (and W_S1_V2 R_E1_V2)))
 (let (($x2725 (or R_E1_V3 $x47 $x49 $x51)))
 (let (($x2530 (not $x2725)))
 (let (($x2603 (= DISJ_W_S1_R_E1 $x2530)))
 (let (($x37 (and W_S1_V4 R_S2_V4)))
 (let (($x35 (and W_S1_V5 R_S2_V5)))
 (let (($x33 (and W_S1_V2 R_S2_V2)))
 (let (($x29 (and W_S1_V1 R_S2_V1)))
 (let (($x101 (or $x29 R_S2_V3 $x33 $x35 $x37)))
 (let (($x102 (not $x101)))
 (let (($x103 (= DISJ_W_S1_R_S2 $x102)))
 (let (($x23 (and W_S1_V4 R_S1_V4)))
 (let (($x20 (and W_S1_V5 R_S1_V5)))
 (let (($x17 (and W_S1_V2 R_S1_V2)))
 (let (($x12 (and W_S1_V1 R_S1_V1)))
 (let (($x98 (or $x12 R_S1_V3 $x17 $x20 $x23)))
 (let (($x99 (not $x98)))
 (let (($x100 (= DISJ_W_S1_R_S1 $x99)))
 (let (($x150 (not R_E1_V1)))
 (and $x150 W_S1_V3 W_S2_V4 $x100 $x103 $x2603 $x109 $x112 $x115 $x2837
 $x2806))))))))))))))))))))))))))))))))))))))))))))))))))
(assert
 (let (($x2209 (not W_S1_V2)))
 (let (($x2791 (and $x2209 DISJ_W_S1_R_E1))) (not $x2791))))
(check-sat)
(exit)

